NAME = SAfile180,
TOURSIZE = 180,
LENGTH = 1950,
55,124,123,153,159,78,74,163,145,104,177,169,168,14,60,85,82,72,62,137,24,44,118,89,141,27,114,111,110,105,69,67,131,76,53,31,176,180,58,125,33,73,28,54,164,170,96,103,101,26,94,48,81,112,65,100,143,146,127,126,162,79,93,8,21,42,138,46,40,147,15,61,155,128,77,70,23,37,36,66,64,171,83,41,172,116,158,135,52,43,139,152,29,16,12,45,157,56,86,87,154,129,102,88,25,133,144,108,161,59,148,9,5,140,71,119,99,49,117,151,142,98,91,1,11,63,38,50,4,32,113,57,179,166,106,19,17,68,20,122,134,13,80,121,156,97,10,34,3,39,75,167,90,136,18,2,178,7,120,115,165,160,92,95,109,30,51,47,175,22,6,132,150,149,107,35,84,130,174,173